8804
1 0 1 1 0 1 1 1 0 0 0 0 1 1 0 0 0 0 1 0 
18 18 18 18 18 18 18 2 2 2 2 2 2 2 2 2 2 2 2 12 12 12 12 6 12 2 6 6 6 6 6 6 6 6 6 6 6 6 6 7 7 7 0 7 0 0 0 0 0 0 0 0 7 7 7 7 7 7 7 7 7 7 13 7 3 7 3 7 7 13 13 7 13 13 18 13 13 13 13 13 13 5 5 5 5 5 5 5 5 5 5 18 18 18 18 18 18 18 18 18 
